Version identifier: 12.10.0.0 | 2019-11-26 | 843d4de
CPXPARAM_WorkMem                                 16384
CPXPARAM_MIP_Limits_TreeMemory                   24576
Tried aggregator 2 times.
Aggregator did 50 substitutions.
Reduced MIP has 163 rows, 180 columns, and 732 nonzeros.
Reduced MIP has 180 binaries, 0 generals, 0 SOSs, and 0 indicators.
Presolve time = 0,00 sec. (0,73 ticks)
Found incumbent of value 2874,000000 after 0,00 sec. (1,17 ticks)
Probing time = 0,00 sec. (0,33 ticks)
Tried aggregator 1 time.
Detecting symmetries...
MIP Presolve eliminated 39 rows and 0 columns.
MIP Presolve added 78 rows and 0 columns.
Reduced MIP has 202 rows, 180 columns, and 771 nonzeros.
Reduced MIP has 180 binaries, 0 generals, 0 SOSs, and 0 indicators.
Presolve time = 0,00 sec. (1,02 ticks)
Probing time = 0,00 sec. (0,32 ticks)
Clique table members: 532.
MIP emphasis: balance optimality and feasibility.
MIP search method: dynamic search.
Parallel mode: deterministic, using up to 16 threads.
Root relaxation solution time = 0,00 sec. (0,74 ticks)

        Nodes                                         Cuts/
   Node  Left     Objective  IInf  Best Integer    Best Bound    ItCnt     Gap

*     0+    0                         2874,0000        0,0000           100,00%
*     0+    0                         2071,0000        0,0000           100,00%
      0     0      958,0000   180     2071,0000      958,0000       74   53,74%
      0     0      978,7001   180     2071,0000      Cuts: 22      103   52,74%
      0     0      987,4193   180     2071,0000      Cuts: 72      125   52,32%
      0     0      989,0636   180     2071,0000     Cuts: 101      148   52,24%
      0     0      990,0454   180     2071,0000   ZeroHalf: 5      155   52,19%
      0     0      992,0063   180     2071,0000   ZeroHalf: 4      161   52,10%
      0     0     1238,6580   180     2071,0000     Cuts: 141      319   40,19%
      0     0     1245,6362   180     2071,0000      Cuts: 13      331   39,85%
      0     0     1249,9780   180     2071,0000       Cuts: 5      357   39,64%
      0     0     1250,4292   180     2071,0000      Cuts: 19      363   39,62%
      0     0     1251,2427   180     2071,0000   ZeroHalf: 3      368   39,58%
      0     0     1251,3155   180     2071,0000   ZeroHalf: 1      372   39,58%
      0     0     1251,5628   180     2071,0000       Cuts: 3      378   39,57%
      0     0     1252,1682   180     2071,0000   ZeroHalf: 2      387   39,54%
      0     0     1252,6669   180     2071,0000      Cuts: 14      399   39,51%
      0     0     1253,1707   180     2071,0000       Cuts: 5      407   39,49%
      0     0     1253,7512   180     2071,0000       Cuts: 4      414   39,46%
      0     0     1253,9114   180     2071,0000   ZeroHalf: 2      418   39,45%
*     0+    0                         1978,0000     1253,9114            36,61%
      0     2     1253,9114   157     1978,0000     1533,6833      418   22,46%
Elapsed time = 0,20 sec. (80,33 ticks, tree = 0,02 MB, solutions = 3)

Clique cuts applied:  54
Cover cuts applied:  114
Implied bound cuts applied:  5
Flow cuts applied:  1
Mixed integer rounding cuts applied:  62
Zero-half cuts applied:  28
Gomory fractional cuts applied:  8

Root node processing (before b&c):
  Real time             =    0,19 sec. (80,03 ticks)
Parallel b&c, 16 threads:
  Real time             =    0,19 sec. (30,62 ticks)
  Sync time (average)   =    0,15 sec.
  Wait time (average)   =    0,00 sec.
                          ------------
Total (root+branch&cut) =    0,38 sec. (110,66 ticks)
